14 51
1 2 1
1 3 0
1 4 0
1 5 1
1 6 0
1 7 1
1 8 0
1 9 0
1 10 0
1 11 1
1 12 1
1 13 0
1 14 1
2 3 1
2 4 0
2 5 1
2 6 0
2 7 1
2 8 1
2 9 1
2 10 1
2 11 1
2 12 1
2 13 1
2 14 0
3 4 0
3 5 0
3 6 0
3 7 1
3 8 0
3 9 1
3 10 1
3 11 0
3 12 0
3 13 0
3 14 1
4 5 1
4 6 1
4 7 1
4 8 0
4 9 0
4 10 1
4 11 1
4 12 1
4 13 1
4 14 0
5 6 0
5 7 1
5 8 1
5 9 0
5 10 0
5 11 1
5 12 0
5 13 1
5 14 0
6 7 1
6 8 0
6 9 0
6 10 1
6 11 1
6 12 0
6 13 0
6 14 0
7 8 1
7 9 0
7 10 1
7 11 0
7 12 1
7 13 0
7 14 1
8 9 0
8 10 1
8 11 0
8 12 0
8 13 1
8 14 1
9 10 1
9 11 1
9 12 1
9 13 0
9 14 1
10 11 0
10 12 1
10 13 1
10 14 1
11 12 0
11 13 1
11 14 0
12 13 1
12 14 1
13 14 1
